Elements
100
Profit
117, 113, 113, 113, 112, 112, 112, 112, 112, 111, 110, 110, 109, 109, 108, 108, 108, 108, 108, 108, 108, 107, 106, 106, 105, 105, 105, 105, 104, 103, 102, 102, 102, 101, 101, 101, 101, 100, 100, 100, 100, 100, 100, 99, 99, 99, 99, 99, 99, 99, 99, 98, 98, 98, 98, 98, 98, 98, 98, 97, 97, 97, 97, 97, 97, 97, 97, 96, 96, 96, 96, 96, 96, 95, 95, 95, 95, 95, 94, 94, 94, 94, 94, 93, 93, 93, 92, 92, 92, 91, 91, 91, 90, 90, 89, 89, 88, 88, 87, 87
Weight
108, 98, 95, 107, 98, 100, 96, 105, 93, 112, 95, 105, 91, 96, 100, 103, 91, 96, 105, 90, 101, 110, 108, 95, 99, 96, 108, 101, 102, 100, 111, 88, 99, 112, 101, 105, 94, 113, 87, 101, 108, 96, 91, 89, 102, 99, 98, 93, 98, 99, 106, 112, 90, 100, 92, 94, 98, 97, 99, 95, 112, 108, 100, 98, 117, 98, 100, 98, 99, 113, 94, 111, 102, 99, 97, 87, 97, 103, 97, 89, 96, 94, 93, 104, 92, 109, 97, 109, 100, 88, 92, 108, 97, 106, 97, 97, 99, 94, 102, 95
Capacity
4995